\ Model subroutine
\ LP format - for model browsing. Use MPS format to capture full model detail.
Maximize
  + 4 Constant + [ 2 x0 ^2 + 2 x1 ^2 + 2 x2 ^2 + 2 x3 ^2 + 2 x4 ^2 + 2 x5 ^2
   + 2 x7 ^2 + 2 x8 ^2 + 2 x9 ^2 + 2 x10 ^2 + 2 x11 ^2 + 2 x12 ^2
   + 2 x13 ^2 + 2 x15 ^2 + 2 x16 ^2 + 2 x17 ^2 + 2 x18 ^2 + 2 x21 ^2
   + 2 x22 ^2 ] / 2 
Subject To
 D0: x0 + x1 + x2 + x5 + x10 + x12 + x22 = 0
 D1: x0 + x4 + x5 + x7 + x8 + x11 + x12 + x18 + x22 = 0
 D2: x0 + x4 + x5 + x12 + x15 + x17 + x18 + x21 = 0
 D3: x0 + x1 + x2 + x4 + x5 + x9 + x13 + x15 + x16 + x17 + x18 + x21 + x22
   = 0
 D4: x0 + x5 + x8 + x10 + x11 + x17 = 0
Bounds
 -100 <= x0 <= 100
 -100 <= x1 <= 100
 -100 <= x2 <= 100
 -100 <= x3 <= 100
 -100 <= x4 <= 100
 -100 <= x5 <= 100
 -100 <= x7 <= 100
 -100 <= x8 <= 100
 -100 <= x9 <= 100
 -100 <= x10 <= 100
 -100 <= x11 <= 100
 -100 <= x12 <= 100
 -100 <= x13 <= 100
 -100 <= x15 <= 100
 -100 <= x16 <= 100
 -100 <= x17 <= 100
 -100 <= x18 <= 100
 -100 <= x21 <= 100
 -100 <= x22 <= 100
 Constant = 1
End
